c Output_time 26.03.2020 18:15:15_+0100 1585242915642166416
c ** Program information **
c program_name                          "QBRG_debug"
c version                               "0.3.20"
c date                                  "25.3.2020"
c gid_id                                "673970833836058123f633335630c185360d632e"
c author                                "Oliver Kullmann"
c url                                   "https://github.com/OKullmann/oklibrary/blob/master/Satisfiability/Transformers/Generators/Random/QBRG.cpp"
c ** Machine information **
c machine_name                          "chyna-Lenovo-G50-70"
c bogomips                              3791.08
c ** Compilation information **
c compiler_version                      "g++ 7.5.0"
c compilation_date                      "Mar_26_2020 11:16:30"
c compilation_options                   "--std=c++17 -pedantic -fmax-errors=5 -Wall -Wextra -g -D_GLIBCXX_DEBUG"
c NDEBUG                                0
c OPTIMIZE                              0
c ** Parameters **
c command-line                          "./QBRG_debug" "a40 e40 a40 40" "328*1,1|2-2,1|3-3,1|4-4,1" "" "1,t" ""
c output                                "QuBlRaGe_160_328_1585242915641998924.qdimacs"
c options                               "filtered,renamed"
c num_quantifier_blocks                 4
c  quantifier_blocks                    1:a1-40 2:e41-80 3:a81-120 4:e121-160
c num_clause-blocks                     1
c  clause-blocks                        328 * {1-40,1,1/2} | {41-80,1,1/2} | {81-120,1,1/2} | {121-160,1,1/2}
c num_e-seeds                           37+2=39
c  e-seeds                              1 0 1 0 5 160 2 40 0 40 1 40 0 40 1 328 4 1 1 1 1 2 2 2 1 1 2 3 3 1 1 2 4 4 1 1 2 1 1585242915641998224
p cnf 160 328
a 1 2 3 4 5 6 7 8 9 10 11 12 13 14 15 16 17 18 19 20 21 22 23 24 25 26 27 28 29 30 31 32 33 34 35 36 37 38 39 40 0
e 41 42 43 44 45 46 47 48 49 50 51 52 53 54 55 56 57 58 59 60 61 62 63 64 65 66 67 68 69 70 71 72 73 74 75 76 77 78 79 80 0
a 81 82 83 84 85 86 87 88 89 90 91 92 93 94 95 96 97 98 99 100 101 102 103 104 105 106 107 108 109 110 111 112 113 114 115 116 117 118 119 120 0
e 121 122 123 124 125 126 127 128 129 130 131 132 133 134 135 136 137 138 139 140 141 142 143 144 145 146 147 148 149 150 151 152 153 154 155 156 157 158 159 160 0
-37 52 -102 -121 0
-21 -76 114 -121 0
-26 78 -81 121 0
28 -55 88 121 0
27 -48 -92 121 0
25 -78 94 121 0
15 -43 109 121 0
32 58 -119 121 0
6 71 -91 -122 0
-1 78 -103 -122 0
13 66 -113 -122 0
30 57 -115 -122 0
16 -61 83 122 0
36 -51 -86 122 0
-19 59 -99 122 0
35 67 118 122 0
-8 -75 86 -123 0
19 74 83 123 0
29 61 -87 123 0
21 -54 -98 123 0
6 -45 120 123 0
-22 65 -100 -124 0
15 -68 -110 -124 0
-14 79 -117 -124 0
-17 -55 83 124 0
6 56 86 124 0
34 61 86 124 0
2 -43 -106 124 0
-1 -41 84 -125 0
31 62 86 -125 0
10 -72 -93 -125 0
-34 -59 96 -125 0
26 44 -96 125 0
-19 -76 99 125 0
-22 -66 103 125 0
-33 -47 -109 125 0
33 -41 110 125 0
-8 -44 -112 125 0
37 -64 -88 -126 0
-26 -62 -92 -126 0
36 -50 -99 -126 0
-22 65 -117 -126 0
29 79 117 -126 0
-5 58 96 126 0
-31 -51 -109 126 0
38 54 93 -127 0
35 67 97 -127 0
13 80 107 -127 0
-31 69 108 -127 0
-37 53 -113 -127 0
-27 -56 -86 127 0
16 72 -89 127 0
4 57 -95 127 0
-11 64 103 127 0
27 44 81 -128 0
38 52 -87 -128 0
-7 67 99 -128 0
36 -67 103 -128 0
12 -76 -120 -128 0
11 -45 -87 128 0
21 64 94 128 0
-11 43 -102 128 0
23 -71 103 128 0
-19 -43 -104 128 0
36 77 106 128 0
-3 -42 114 128 0
24 -53 -119 128 0
-40 43 84 -129 0
-23 -41 87 -129 0
9 53 -98 -129 0
-7 46 100 -129 0
35 42 -102 129 0
-18 -50 -112 129 0
-30 -66 96 -130 0
-33 -79 -104 130 0
-13 73 114 130 0
31 54 -83 -131 0
-23 -57 89 -131 0
-4 -72 90 -131 0
7 60 91 -131 0
-16 51 -98 -131 0
-30 -44 -112 -131 0
-12 42 97 131 0
-32 -58 111 131 0
23 -61 111 131 0
2 65 116 131 0
-19 55 120 131 0
-7 50 -99 -132 0
25 -45 -102 -132 0
-25 -58 100 132 0
17 -49 -83 -133 0
-40 53 86 -133 0
-16 41 -109 -133 0
8 60 115 -133 0
17 57 -86 133 0
-9 69 -92 133 0
20 66 -96 133 0
5 58 -105 133 0
-33 71 -117 133 0
-11 77 82 -134 0
13 -46 84 -134 0
-15 -55 -85 -134 0
17 43 -116 -134 0
17 71 119 -134 0
32 70 -83 134 0
-23 74 -90 134 0
-11 -59 93 134 0
-30 48 99 134 0
40 60 102 134 0
-19 67 -110 134 0
-11 45 113 134 0
8 -61 115 134 0
30 -48 -88 -135 0
19 52 -95 -135 0
10 -72 -103 -135 0
20 -44 108 -135 0
32 -47 -118 -135 0
1 -54 120 -135 0
-12 68 89 135 0
-32 73 102 135 0
-21 -64 109 135 0
6 70 110 135 0
-5 44 -112 135 0
-7 43 117 135 0
-4 -65 120 135 0
6 57 -81 -136 0
-15 -54 -89 -136 0
4 46 92 -136 0
-32 -65 92 -136 0
33 -49 -94 136 0
26 -63 85 -137 0
-27 -56 -96 -137 0
26 59 97 -137 0
-19 49 102 -137 0
-26 -72 -106 -137 0
22 71 -119 -137 0
-17 44 -99 137 0
-26 -44 103 137 0
16 67 116 137 0
-31 56 -120 137 0
25 53 -81 -138 0
8 56 82 138 0
-20 60 98 138 0
24 -66 119 138 0
10 78 -87 -139 0
-17 -47 -88 -139 0
-19 75 -103 -139 0
6 77 105 -139 0
20 -66 -106 -139 0
-16 70 -110 -139 0
3 -73 -113 -139 0
18 -78 117 -139 0
-26 -61 -88 139 0
-2 53 91 139 0
-27 -53 -103 139 0
-5 -47 -108 139 0
-26 -56 -109 139 0
29 43 -116 139 0
1 67 85 -140 0
-7 -72 -87 -140 0
14 55 95 -140 0
-21 76 100 -140 0
35 77 89 140 0
-29 -66 108 140 0
29 59 -110 140 0
-7 -46 110 140 0
-21 -67 114 140 0
-24 41 -120 140 0
-2 -52 -82 -141 0
-32 -76 -82 -141 0
-6 75 87 -141 0
30 -54 89 -141 0
22 -42 95 -141 0
-39 -70 -106 -141 0
-32 -53 -114 -141 0
6 -55 117 -141 0
-1 53 -89 141 0
20 -52 92 141 0
-3 52 93 141 0
-2 78 115 141 0
30 -48 99 -142 0
-33 71 -110 -142 0
-30 69 -92 142 0
-15 -54 -82 -143 0
-39 62 97 -143 0
-3 52 106 -143 0
-31 -75 113 -143 0
-39 -64 114 -143 0
13 -62 -103 143 0
-32 -41 -105 143 0
10 -69 119 143 0
-3 69 81 -144 0
-4 67 -88 -144 0
-9 -70 88 144 0
-27 69 -98 144 0
-22 -62 107 144 0
3 -43 111 144 0
-30 77 -81 -145 0
7 52 -91 -145 0
3 54 -91 -145 0
35 51 -93 -145 0
14 -41 94 -145 0
31 54 -110 -145 0
-1 43 -116 -145 0
-12 -55 -116 -145 0
17 49 -86 145 0
32 56 86 145 0
-2 78 -86 -146 0
29 46 88 -146 0
-1 41 -90 -146 0
7 47 91 -146 0
-36 -73 -92 -146 0
39 49 111 -146 0
-36 -44 -116 -146 0
-11 -74 -88 146 0
-35 72 -103 146 0
19 63 -108 146 0
-15 -80 109 146 0
-3 53 -113 146 0
-39 52 -88 -147 0
-2 -42 -100 -147 0
-11 -71 -106 -147 0
29 78 82 147 0
19 68 100 147 0
-18 -67 113 147 0
8 43 116 147 0
32 64 -81 -148 0
-25 -50 -92 -148 0
-1 -46 -104 -148 0
-12 71 -114 -148 0
-40 -62 120 -148 0
-2 -78 -96 148 0
-20 75 -104 148 0
1 -79 111 148 0
35 -46 -85 -149 0
11 67 91 -149 0
-35 -59 -94 -149 0
-11 -56 -110 -149 0
-39 -76 -108 149 0
39 -68 82 -150 0
-28 65 91 -150 0
22 78 -100 -150 0
-8 78 104 -150 0
5 -58 -81 150 0
15 50 81 150 0
19 -49 -90 150 0
30 56 -91 150 0
31 64 -94 150 0
-20 -45 -98 150 0
6 -49 105 150 0
40 -73 108 150 0
7 41 -113 150 0
4 -78 107 -151 0
30 80 -109 -151 0
-23 61 116 -151 0
19 -69 -81 151 0
-24 57 85 151 0
-16 -55 89 151 0
7 55 90 151 0
19 72 -107 151 0
10 55 -107 -152 0
3 -70 -107 -152 0
-11 48 85 152 0
30 -67 -87 152 0
-29 41 93 152 0
-8 -69 -98 152 0
-28 63 -82 -153 0
16 -62 85 153 0
9 63 -92 153 0
25 -44 95 153 0
-8 -62 -110 153 0
-18 -56 -85 -154 0
15 64 88 -154 0
11 -52 91 -154 0
3 41 -92 -154 0
-34 63 -102 -154 0
16 76 113 -154 0
1 -55 -120 -154 0
17 -55 -86 154 0
21 55 103 154 0
-6 77 117 154 0
-34 -74 119 154 0
-16 52 -85 -155 0
7 59 86 -155 0
10 -43 93 -155 0
32 58 96 -155 0
-12 41 -98 -155 0
1 63 -101 -155 0
-28 -68 -85 155 0
-1 -75 -96 155 0
-11 -48 -107 155 0
-39 -71 119 155 0
-19 -46 81 -156 0
4 44 88 -156 0
8 -79 91 -156 0
-12 67 -110 -156 0
-18 67 105 156 0
-31 -57 113 156 0
19 77 -120 156 0
-17 78 -85 -157 0
23 42 86 -157 0
-39 -63 100 -157 0
-9 -67 -109 -157 0
24 -72 106 157 0
-17 72 108 157 0
22 -78 -119 157 0
36 77 93 -158 0
15 80 101 -158 0
34 78 -104 -158 0
20 67 -83 158 0
-11 74 -87 158 0
-3 -50 88 158 0
21 77 96 158 0
-9 41 104 158 0
28 -62 84 -159 0
-17 -49 110 -159 0
-25 -65 -113 -159 0
15 -55 115 -159 0
-34 -48 86 159 0
15 67 -102 159 0
17 -49 -114 159 0
-6 50 -118 159 0
17 -59 97 -160 0
-13 52 -106 -160 0
-2 -70 110 -160 0
-11 -56 93 160 0
23 70 -94 160 0
-9 -60 -120 160 0
